100
100
638 9
245 10
623 22
155 18
377 7
36 23
944 13
861 2
772 19
641 8
546 23
468 7
578 25
883 21
280 22
305 17
875 10
680 1
33 4
867 6
719 13
863 6
3 17
29 25
663 15
900 4
272 17
415 12
734 19
175 3
340 3
459 5
130 18
957 1
865 13
406 22
998 8
233 18
341 18
280 3
616 11
266 21
122 10
57 5
931 21
911 21
324 9
269 6
484 14
331 20
459 1
879 11
81 10
368 19
23 11
879 19
835 25
3 23
369 15
655 20
972 15
261 6
555 3
714 25
886 17
643 24
522 21
120 23
720 9
639 23
590 21
17 20
471 24
517 17
559 24
78 8
874 7
626 21
780 10
181 7
61 14
87 21
201 24
647 4
500 21
776 4
20 2
973 15
997 4
994 2
789 6
712 5
202 25
330 16
793 5
658 23
679 22
862 22
67 9
155 25
